% Data for perfect square placement problem:
% http://www.hakank.org/minizinc/perfect_square_placement.mzn
% Data is originally from CSPLib:
% http://www.cs.st-andrews.ac.uk/~ianm/CSPLib/prob/prob009/results

% problem 143 
n = 472;
size = 25;
a = [7,9,13,15,26,34,35,44,47,51,58,61,65,81,87,103,104,115,118,123,128,133,136,148,221];

